14.0 68.0 0
73.0 2.0 8
13.0 47.0 24
37.0 44.0 9
34.0 63.0 19
58.0 98.0 9
33.0 42.0 18
18.0 98.0 9
24.0 79.0 14
17.0 28.0 3
72.0 67.0 14
78.0 63.0 8
42.0 48.0 8
1.0 2.0 13
2.0 28.0 18
32.0 82.0 4
97.0 38.0 24
39.0 53.0 14
87.0 1.0 8
42.0 77.0 18
83.0 27.0 13
79.0 92.0 2
22.0 39.0 9
58.0 32.0 18
53.0 84.0 3
38.0 37.0 24
63.0 59.0 8
42.0 88.0 24
32.0 88.0 14
38.0 23.0 13
63.0 32.0 24
22.0 73.0 23
88.0 94.0 9
58.0 78.0 13
43.0 62.0 14
73.0 1.0 14
17.0 32.0 18
87.0 79.0 24
12.0 24.0 4
48.0 53.0 8
48.0 23.0 13
7.0 37.0 4
98.0 77.0 14
34.0 12.0 18
